(declare-const grace00 Int)
(declare-const phase Int)
(declare-const one Int)
(declare-const two Int)
(assert (> grace00 0))
(assert (< grace00 10))
(assert (> phase 0))
(assert (< phase 10))
(assert (> one 0))
(assert (< one 10))
(assert (> two 0))
(assert (< two 10))
(assert (distinct grace00 phase one two))
(check-sat)
(get-model)